words_hard_train/2846.qaiger
aag 84 24 0 1 60
2
4
8
12
20
28
36
44
52
60
64
72
82
90
94
104
106
114
118
124
138
142
156
164
168
6 3 5
10 6 9
14 11 12
16 10 13
18 15 17
22 18 21
24 19 20
26 23 25
30 27 28
32 7 8
34 33 11
38 34 37
40 35 36
42 39 41
46 43 44
48 2 4
50 49 7
54 50 53
56 51 52
58 55 57
62 59 60
66 65 3
68 64 2
70 67 69
74 70 72
76 63 74
78 47 76
80 31 78
84 17 82
86 16 83
88 85 87
92 88 90
96 93 94
98 89 91
100 96 99
102 80 101
108 104 106
110 105 107
112 109 111
116 86 115
120 116 119
122 112 121
126 123 124
128 113 120
130 126 129
132 102 131
134 117 118
136 135 121
140 136 138
144 141 142
146 137 139
148 144 147
150 132 149
152 87 114
154 153 117
158 154 157
160 155 156
162 159 161
166 163 164
168 150 167
i0 2 y1[0]
i1 2 y1[1]
i2 2 y1[2]
i3 2 y1[3]
i4 1 x2[3]
i5 2 y2[3]
i6 1 x2[2]
i7 2 y2[2]
i8 1 x2[1]
i9 2 y2[1]
i10 1 x2[0]
i11 2 y2[0]
i12 2 y1[4]
i13 1 x2[4]
i14 2 y2[4]
i15 1 x2[7]
i16 2 y1[7]
i17 2 y1[5]
i18 2 y1[6]
i19 2 y2[7]
i20 1 x2[6]
i21 2 y2[6]
i22 1 x2[5]
i23 2 y2[5]
o0 bool[0]
c
simplified
  ==
    and
      2 y2
      xor
        unary minus
          2 y1
        1 x2
    1
