words_hard_train/2846.qaiger.qdimacs
p cnf 84 181
a 32 69 10 45 78 18 52 26 0
e 1 2 3 4 5 6 7 8 9 11 12 13 14 15 16 17 19 20 21 22 23 24 25 27 28 29 30 31 33 34 35 36 37 38 39 40 41 42 43 44 46 47 48 49 50 51 53 54 55 56 57 58 59 60 61 62 63 64 65 66 67 68 70 71 72 73 74 75 76 77 79 80 81 82 83 84 0
1 2 3 0
-1 -3 0
-2 -3 0
-3 4 5 0
3 -5 0
-4 -5 0
5 -6 7 0
-5 -7 0
6 -7 0
-5 6 8 0
5 -8 0
-6 -8 0
7 8 9 0
-7 -9 0
-8 -9 0
-9 10 11 0
9 -11 0
-10 -11 0
9 -10 12 0
-9 -12 0
10 -12 0
11 12 13 0
-11 -13 0
-12 -13 0
13 -14 15 0
-13 -15 0
14 -15 0
3 -4 16 0
-3 -16 0
4 -16 0
16 5 17 0
-16 -17 0
-5 -17 0
-17 18 19 0
17 -19 0
-18 -19 0
17 -18 20 0
-17 -20 0
18 -20 0
19 20 21 0
-19 -21 0
-20 -21 0
21 -22 23 0
-21 -23 0
22 -23 0
-1 -2 24 0
1 -24 0
2 -24 0
24 3 25 0
-24 -25 0
-3 -25 0
-25 26 27 0
25 -27 0
-26 -27 0
25 -26 28 0
-25 -28 0
26 -28 0
27 28 29 0
-27 -29 0
-28 -29 0
29 -30 31 0
-29 -31 0
30 -31 0
32 1 33 0
-32 -33 0
-1 -33 0
-32 -1 34 0
32 -34 0
1 -34 0
33 34 35 0
-33 -35 0
-34 -35 0
-35 -36 37 0
35 -37 0
36 -37 0
31 -37 38 0
-31 -38 0
37 -38 0
23 -38 39 0
-23 -39 0
38 -39 0
15 -39 40 0
-15 -40 0
39 -40 0
8 -41 42 0
-8 -42 0
41 -42 0
-8 41 43 0
8 -43 0
-41 -43 0
42 43 44 0
-42 -44 0
-43 -44 0
-44 -45 46 0
44 -46 0
45 -46 0
46 -47 48 0
-46 -48 0
47 -48 0
44 45 49 0
-44 -49 0
-45 -49 0
-48 49 50 0
48 -50 0
-49 -50 0
-40 50 51 0
40 -51 0
-50 -51 0
-52 -53 54 0
52 -54 0
53 -54 0
52 53 55 0
-52 -55 0
-53 -55 0
54 55 56 0
-54 -56 0
-55 -56 0
-43 57 58 0
43 -58 0
-57 -58 0
-58 59 60 0
58 -60 0
-59 -60 0
-56 60 61 0
56 -61 0
-60 -61 0
61 -62 63 0
-61 -63 0
62 -63 0
56 -60 64 0
-56 -64 0
60 -64 0
-63 64 65 0
63 -65 0
-64 -65 0
-51 65 66 0
51 -66 0
-65 -66 0
58 -59 67 0
-58 -67 0
59 -67 0
67 60 68 0
-67 -68 0
-60 -68 0
-68 -69 70 0
68 -70 0
69 -70 0
70 -71 72 0
-70 -72 0
71 -72 0
68 69 73 0
-68 -73 0
-69 -73 0
-72 73 74 0
72 -74 0
-73 -74 0
-66 74 75 0
66 -75 0
-74 -75 0
43 -57 76 0
-43 -76 0
57 -76 0
76 58 77 0
-76 -77 0
-58 -77 0
-77 78 79 0
77 -79 0
-78 -79 0
77 -78 80 0
-77 -80 0
78 -80 0
79 80 81 0
-79 -81 0
-80 -81 0
81 -82 83 0
-81 -83 0
82 -83 0
-75 83 84 0
75 -84 0
-83 -84 0
84 0
